X Y
35.0 35.0
47.0 16.0
44.0 17.0
46.0 13.0
45.0 20.0
49.0 11.0
45.0 10.0
53.0 12.0
55.0 20.0
42.0 7.0
40.0 25.0
35.0 17.0
55.0 5.0
60.0 12.0
45.0 30.0
36.0 26.0
32.0 12.0
57.0 29.0
63.0 23.0
37.0 31.0
65.0 20.0
28.0 18.0
50.0 35.0
30.0 25.0
30.0 5.0
41.0 37.0
